p cnf 43 26
-1 33 0 
-2 34 0 
-3 33 0 
-4 13 35 -3 0 
-5 36 0 
-6 -7 31 -1 37 0 
-8 -9 33 0 
-10 12 14 33 0 
-11 -12 10 14 -13 4 33 0 
-14 10 12 38 0 
-15 -1 33 0 
-1 -16 -17 33 0 
-18 33 0 
-19 -1 33 0 
-1 -20 33 0 
-1 39 0 
-21 -22 40 0 
-1 -23 35 -3 0 
-24 40 0 
-25 40 0 
-26 33 0 
-27 41 -16 0 
-28 42 0 
-29 -1 33 0 
-30 -1 33 0 
-31 7 -32 43 0 
